100
100
99
99
96
96
95
95
94
94
93
91
91
88
88
87
87
87
87
84
84
83
83
82
82
82
81
81
81
80
78
77
77
76
76
76
74
74
74
74
74
73
73
73
73
73
72
72
71
71
70
70
69
68
67
64
64
63
62
60
60
59
59
59
58
58
57
57
57
55
55
53
52
51
50
49
48
46
46
45
43
43
42
42
42
42
42
40
40
40
38
37
36
36
34
34
33
33
33
31
30
30
